experiment/data/hgs-res/Vrp-Set-B-n50/Vrp-Set-B-n50-hgs/0.hgs1.vrp
NAME : 0
COMMENT : CVRP Instance
TYPE : CVRP
DIMENSION : 50
EDGE_WEIGHT_TYPE : EUC_2D
CAPACITY : 100
NODE_COORD_SECTION
1	49.0	53.0
2	59.0	1.0
3	17.0	83.0
4	85.0	57.0
5	47.0	21.0
6	1.0	21.0
7	25.0	69.0
8	75.0	63.0
9	3.0	7.0
10	56.0	26.0
11	86.0	58.0
12	8.0	8.0
13	59.0	27.0
14	64.0	2.0
15	86.0	64.0
16	28.0	72.0
17	88.0	58.0
18	18.0	90.0
19	82.0	64.0
20	22.0	92.0
21	6.0	10.0
22	10.0	24.0
23	59.0	29.0
24	52.0	24.0
25	94.0	62.0
26	76.0	68.0
27	66.0	2.0
28	90.0	58.0
29	20.0	84.0
30	50.0	22.0
31	76.0	64.0
32	63.0	33.0
33	20.0	84.0
34	59.0	31.0
35	32.0	74.0
36	48.0	24.0
37	2.0	30.0
38	10.0	8.0
39	57.0	27.0
40	68.0	6.0
41	28.0	74.0
42	63.0	35.0
43	86.0	58.0
44	90.0	62.0
45	22.0	90.0
46	6.0	28.0
47	62.0	8.0
48	59.0	35.0
49	18.0	88.0
50	30.0	76.0
DEMAND_SECTION
1	0
2	21
3	8
4	11
5	7
6	21
7	5
8	13
9	10
10	9
11	20
12	7
13	12
14	23
15	2
16	4
17	14
18	12
19	3
20	5
21	13
22	5
23	12
24	2
25	3
26	18
27	24
28	4
29	63
30	19
31	2
32	9
33	4
34	9
35	23
36	6
37	3
38	12
39	7
40	17
41	22
42	26
43	14
44	9
45	2
46	16
47	24
48	4
49	19
50	11
DEPOT_SECTION
1
-1
EOF
