experiment/data/hgs-res/Vrp-Set-B-n50/Vrp-Set-B-n50-hgs/0.hgs1.tour
Route #1: 21 45 36 5 8 20 11 37
Route #2: 47 33 22 38 9 46 29 4 35
Route #3: 23 1 13 26 39 12
Route #4: 31 41 7
Route #5: 3 10 42 16 27 24 43 14 18 25 30
Route #6: 6 2 48 17 19 44 49 34
Route #7: 15 28 32 40
Cost 744.228
